Set parameter Username
Set parameter Threads to value 1
Academic license - for non-commercial use only - expires 2022-07-11
Set parameter TimeLimit to value 300
Gurobi Optimizer version 9.5.1 build v9.5.1rc2 (linux64)
Thread count: 2 physical cores, 4 logical processors, using up to 1 threads
Optimize a model with 1009 rows, 908 columns and 4316 nonzeros
Model fingerprint: 0x3e6af628
Variable types: 40 continuous, 868 integer (868 binary)
Coefficient statistics:
  Matrix range     [1e-01, 4e+02]
  Objective range  [2e-02, 5e-01]
  Bounds range     [1e+00, 1e+00]
  RHS range        [1e+00, 9e+02]
Found heuristic solution: objective 3.5179824
Presolve removed 211 rows and 79 columns
Presolve time: 0.04s
Presolved: 798 rows, 829 columns, 3800 nonzeros
Found heuristic solution: objective 3.4568486
Variable types: 39 continuous, 790 integer (790 binary)

Root relaxation: objective 2.053666e+00, 774 iterations, 0.01 seconds (0.01 work units)

    Nodes    |    Current Node    |     Objective Bounds      |     Work
 Expl Unexpl |  Obj  Depth IntInf | Incumbent    BestBd   Gap | It/Node Time

     0     0    2.05367    0   69    3.45685    2.05367  40.6%     -    0s
H    0     0                       3.1756541    2.05367  35.3%     -    0s
H    0     0                       3.1732697    2.05367  35.3%     -    0s
     0     0    2.13817    0   84    3.17327    2.13817  32.6%     -    0s
     0     0    2.18913    0   88    3.17327    2.18913  31.0%     -    0s
     0     0    2.23568    0   59    3.17327    2.23568  29.5%     -    0s
H    0     0                       2.9321733    2.23568  23.8%     -    0s
     0     0    2.24029    0   57    2.93217    2.24029  23.6%     -    0s
     0     0    2.31502    0   86    2.93217    2.31502  21.0%     -    0s
H    0     0                       2.8860409    2.31502  19.8%     -    0s
     0     0    2.35565    0  100    2.88604    2.35565  18.4%     -    0s
     0     0    2.39285    0   98    2.88604    2.39285  17.1%     -    0s
     0     0    2.40006    0  114    2.88604    2.40006  16.8%     -    0s
     0     0    2.40029    0  102    2.88604    2.40029  16.8%     -    0s
     0     0    2.40049    0  105    2.88604    2.40049  16.8%     -    0s
     0     0    2.40056    0  124    2.88604    2.40056  16.8%     -    0s
     0     0    2.41514    0   96    2.88604    2.41514  16.3%     -    0s
     0     0    2.41838    0   96    2.88604    2.41838  16.2%     -    0s
     0     0    2.41974    0   96    2.88604    2.41974  16.2%     -    0s
     0     0    2.41982    0  102    2.88604    2.41982  16.2%     -    0s
     0     0    2.42593    0  112    2.88604    2.42593  15.9%     -    0s
H    0     0                       2.8629575    2.42593  15.3%     -    0s
     0     0    2.42952    0  105    2.86296    2.42952  15.1%     -    0s
     0     0    2.42983    0   81    2.86296    2.42983  15.1%     -    0s
     0     0    2.43053    0   82    2.86296    2.43053  15.1%     -    0s
     0     0    2.43053    0   76    2.86296    2.43053  15.1%     -    0s
     0     0    2.43121    0   98    2.86296    2.43121  15.1%     -    0s
H    0     0                       2.7822023    2.43121  12.6%     -    0s
     0     0    2.43167    0  115    2.78220    2.43167  12.6%     -    0s
     0     0    2.43586    0   96    2.78220    2.43586  12.4%     -    0s
     0     0    2.43683    0   93    2.78220    2.43683  12.4%     -    0s
     0     0    2.43891    0   90    2.78220    2.43891  12.3%     -    0s
     0     0    2.43984    0   81    2.78220    2.43984  12.3%     -    0s
     0     0    2.44050    0  105    2.78220    2.44050  12.3%     -    0s
     0     0    2.44055    0   85    2.78220    2.44055  12.3%     -    0s
     0     0    2.44613    0   88    2.78220    2.44613  12.1%     -    0s
     0     0    2.44921    0  104    2.78220    2.44921  12.0%     -    0s
     0     0    2.45090    0  105    2.78220    2.45090  11.9%     -    0s
     0     0    2.45165    0   96    2.78220    2.45165  11.9%     -    0s
     0     0    2.45221    0  107    2.78220    2.45221  11.9%     -    0s
     0     0    2.45221    0   95    2.78220    2.45221  11.9%     -    0s
     0     0    2.46259    0  114    2.78220    2.46259  11.5%     -    0s
     0     0    2.46500    0  100    2.78220    2.46500  11.4%     -    0s
     0     0    2.46602    0  116    2.78220    2.46602  11.4%     -    0s
     0     0    2.46608    0  106    2.78220    2.46608  11.4%     -    0s
     0     0    2.46828    0   91    2.78220    2.46828  11.3%     -    0s
     0     0    2.46874    0   85    2.78220    2.46874  11.3%     -    0s
     0     0    2.46906    0  108    2.78220    2.46906  11.3%     -    0s
     0     0    2.46926    0  108    2.78220    2.46926  11.2%     -    0s
     0     0    2.47120    0   74    2.78220    2.47120  11.2%     -    0s
     0     0    2.47198    0   93    2.78220    2.47198  11.2%     -    0s
     0     0    2.47252    0  105    2.78220    2.47252  11.1%     -    0s
     0     0    2.47298    0  107    2.78220    2.47298  11.1%     -    0s
     0     0    2.47298    0  107    2.78220    2.47298  11.1%     -    0s
     0     0    2.47597    0  108    2.78220    2.47597  11.0%     -    0s
     0     0    2.47878    0  116    2.78220    2.47878  10.9%     -    0s
     0     0    2.47892    0  116    2.78220    2.47892  10.9%     -    0s
     0     0    2.47922    0  125    2.78220    2.47922  10.9%     -    0s
H    0     0                       2.7189806    2.47922  8.82%     -    0s
     0     0    2.47984    0  128    2.71898    2.47984  8.80%     -    0s
     0     0    2.48160    0  102    2.71898    2.48160  8.73%     -    0s
     0     0    2.48177    0  101    2.71898    2.48177  8.72%     -    0s
     0     0    2.48179    0  102    2.71898    2.48179  8.72%     -    0s
     0     0    2.48179    0  103    2.71898    2.48179  8.72%     -    0s
     0     0    2.48186    0  101    2.71898    2.48186  8.72%     -    0s
     0     0    2.48186    0   99    2.71898    2.48186  8.72%     -    0s
H    0     0                       2.7111807    2.48186  8.46%     -    0s
     0     2    2.48215    0   97    2.71118    2.48215  8.45%     -    0s
H   26    25                       2.6190122    2.48501  5.12%  51.8    1s
H  132    90                       2.6121851    2.49094  4.64%  49.8    1s
H  153    93                       2.6074490    2.49106  4.46%  50.7    1s

Cutting planes:
  Gomory: 1
  Cover: 31
  Implied bound: 14
  Clique: 14
  MIR: 127
  StrongCG: 9
  GUB cover: 2
  Inf proof: 1
  RLT: 24
  Relax-and-lift: 126

Explored 469 nodes (31172 simplex iterations) in 2.59 seconds (1.79 work units)
Thread count was 1 (of 4 available processors)

Solution count 10: 2.60745 2.61219 2.61901 ... 3.17327

Optimal solution found (tolerance 1.00e-04)
Best objective 2.607448999968e+00, best bound 2.607448999968e+00, gap 0.0000%
